p cnf 10 18
c one port of a gate receives one connection
c one output of the circuit receives one connection
-1 -2 0
2 1 0
c input gate has input value
-3 0
4 0
-5 0
6 0
-7 0
-8 0
9 0
10 0
c internal gates produce calculated value
c internal gates restricted to a subset of functions
c outputs match truth table
-2 -3 0
-1 -7 0
-2 -4 0
-1 -8 0
-2 -5 0
-1 -9 0
-2 6 0
-1 10 0
c variable names:
c o_1_0 1
c o_0_0 2
c v_0_0 3
c v_0_1 4
c v_0_2 5
c v_0_3 6
c v_1_0 7
c v_1_1 8
c v_1_2 9
c v_1_3 10
